proyfinal/src/viki/013/experimentInOfficeAgust.take6.output/a0bf53bc-cdee-4c37-8fab-31b85395e27a.als.dat
{'cnf.clauses': '118081',
 'cnf.totvars': '69608',
 'conflict literals': '92',
 'conflicts': '28',
 'decisions': '4705',
 'memused.mb': '17.50',
 'outcome': 'UNSAT',
 'propagations': '26011',
 'restarts': '1',
 'solver.msecs': 30,
 'task.msecs': 81}
