proyfinal/src/viki/013/experimentInOfficeAgust.take6.output/a0bf53bc-cdee-4c37-8fab-31b85395e27a.als.out
Reading from standard input... Use '--help' for help.
============================[ Problem Statistics ]=============================
|                                                                             |
|  Number of variables:         69608                                         |
|  Number of clauses:          118081                                         |
|  Parse time:                   0.02 s                                       |
|                                                                             |
============================[ Search Statistics ]==============================
| Conflicts |          ORIGINAL         |          LEARNT          | Progress |
|           |    Vars  Clauses Literals |    Limit  Clauses Lit/Cl |          |
===============================================================================
===============================================================================
restarts              : 1
conflicts             : 28             (931 /sec)
decisions             : 4705           (0.00 % random) (156489 /sec)
propagations          : 26011          (865130 /sec)
conflict literals     : 92             (0.00 % deleted)
Memory used           : 17.50 MB
CPU time              : 0.030066 s

UNSATISFIABLE
